33
100
70	1
68	1
67	1
65	1
64	1
63	1
62	2
61	1
60	1
59	1
58	1
57	2
55	2
54	1
52	1
50	2
49	3
45	1
41	2
40	2
39	1
37	1
35	1
34	1
33	2
31	3
29	2
26	1
25	1
24	4
23	1
21	1
20	3
